decision_x1=[0,4];
decision_x2=[0,4];
decision_x3=[0,4];
decision_x4=[0,4];
decision_x5=[0,4];
random_y1=[0,4];
constraint_x3_x2=[
0,1,10|
0,2,6.6|
0,3,0.57|
0,4,1.6|
1,0,9.9|
1,2,1.6|
1,3,2|
1,4,6.3|
2,0,3|
2,1,7|
2,3,8.8|
2,4,4.4|
3,0,7|
3,1,4.5|
3,2,3.7|
3,4,5.2|
4,0,3.9|
4,1,7.4|
4,2,3.3|
4,3,0.8|
];
constraint_x4_x3=[
0,1,7|
0,2,3.3|
0,3,3.4|
0,4,8.5|
1,0,2.5|
1,2,5.1|
1,3,7.9|
1,4,9.7|
2,0,4.1|
2,1,7.5|
2,3,4.8|
2,4,9.6|
3,0,7.7|
3,1,3.1|
3,2,8.9|
3,4,4.2|
4,0,2.7|
4,1,3.5|
4,2,6.6|
4,3,1.4|
];
constraint_x5_x1=[
0,1,4.7|
0,2,5.5|
0,3,8.8|
0,4,7.2|
1,0,6.4|
1,2,2.2|
1,3,1.8|
1,4,9.9|
2,0,7.9|
2,1,9.1|
2,3,0.28|
2,4,0.13|
3,0,5.6|
3,1,2.3|
3,2,3.1|
3,4,4.4|
4,0,6|
4,1,9.6|
4,2,9.6|
4,3,6.9|
];
constraint_x5_x3=[
0,1,7|
0,2,9.9|
0,3,1.8|
0,4,1.8|
1,0,7|
1,2,4.6|
1,3,1.7|
1,4,7.4|
2,0,6.2|
2,1,3.6|
2,3,1.1|
2,4,8.6|
3,0,5.8|
3,1,0.18|
3,2,9.6|
3,4,9.4|
4,0,9.9|
4,1,4.7|
4,2,4.8|
4,3,4|
];
constraint_x5_x4=[
0,1,9.6|
0,2,9.7|
0,3,0.77|
0,4,3.8|
1,0,8.7|
1,2,7.6|
1,3,1|
1,4,7.6|
2,0,0.32|
2,1,5.2|
2,3,9.8|
2,4,9.6|
3,0,8.4|
3,1,7.8|
3,2,4.6|
3,4,9.5|
4,0,6.6|
4,1,3.4|
4,2,6.8|
4,3,6.2|
];
constraint_x1_y1=[
0,0,0.13|
0,1,4.5|
0,2,8.9|
0,3,7|
0,4,3.7|
1,0,1.9|
1,1,0.85|
1,2,0.26|
1,3,0.68|
1,4,7.6|
2,0,2.4|
2,1,2.3|
2,2,6|
2,3,1.3|
2,4,6.8|
3,0,5.7|
3,1,8.6|
3,2,0.83|
3,3,4.7|
3,4,0.27|
4,0,7.7|
4,1,9.5|
4,2,4.6|
4,3,5.6|
4,4,6.5|
];
initial_distribution_y1=[0.013,0.24,0.13,0.33,0.28];
transition_y1=[
0.081,0.074,0.24,0.32,0.29|
0.21,0.22,0.25,0.24,0.09|
0.21,0.043,0.31,0.086,0.35|
0.19,0.2,0.34,0.24,0.039|
0.33,0.14,0.026,0.16,0.35|
];
